num_stars = 1;
dim = 8;
sectors = [|
1, 2, 2, 2, 2, 2, 2, 2|
1, 1, 1, 2, 2, 3, 3, 2|
1, 1, 2, 2, 1, 1, 3, 2|
4, 1, 1, 1, 1, 1, 3, 2|
4, 1, 4, 5, 5, 3, 3, 3|
4, 4, 4, 6, 5, 7, 3, 3|
8, 8, 6, 6, 5, 7, 7, 3|
6, 6, 6, 6, 6, 6, 7, 3|
];